p cnf 2361 245
1 -3 0
2 -3 0
-1 -2 3 0
1 -5 0
2 -5 0
4 -5 0
-1 -2 -4 5 0
6 -8 0
7 -8 0
-6 -7 8 0
6 -10 0
7 -10 0
9 -10 0
-6 -7 -9 10 0
11 -13 0
12 -13 0
-11 -12 13 0
11 -15 0
12 -15 0
14 -15 0
-11 -12 -14 15 0
16 -18 0
17 -18 0
-16 -17 18 0
16 -20 0
17 -20 0
19 -20 0
-16 -17 -19 20 0
21 -23 0
22 -23 0
-21 -22 23 0
21 -25 0
22 -25 0
24 -25 0
-21 -22 -24 25 0
26 -28 0
27 -28 0
-26 -27 28 0
29 -31 0
30 -31 0
-29 -30 31 0
32 -34 0
33 -34 0
-32 -33 34 0
35 0
36 0
-69 -125 0
-70 -125 0
-71 -125 0
-72 -125 0
-73 -125 0
-74 -125 0
-75 -125 0
-76 -125 0
-77 -125 0
-78 -125 0
-79 -125 0
-80 -125 0
-81 -125 0
-82 -125 0
-83 -125 0
-84 -125 0
-85 -125 0
-86 -125 0
-87 -125 0
-88 -125 0
-89 -125 0
-90 -125 0
-91 -125 0
-92 -125 0
-93 -125 0
-94 -125 0
-95 -125 0
-96 -125 0
-97 -125 0
-98 -125 0
-99 -125 0
-100 -125 0
69 70 71 72 73 74 75 76 77 78 79 80 81 82 83 84 85 86 87 88 89 90 91 92 93 94 95 96 97 98 99 100 125 0
-126 -158 0
-127 -158 0
-128 -158 0
-129 -158 0
-130 -158 0
-131 -158 0
-132 -158 0
-133 -158 0
-134 -158 0
-135 -158 0
-136 -158 0
-137 -158 0
-138 -158 0
-139 -158 0
-140 -158 0
-141 -158 0
-142 -158 0
-143 -158 0
-144 -158 0
-145 -158 0
-146 -158 0
-147 -158 0
-148 -158 0
-149 -158 0
-150 -158 0
-151 -158 0
-152 -158 0
-153 -158 0
-154 -158 0
-155 -158 0
-156 -158 0
-157 -158 0
126 127 128 129 130 131 132 133 134 135 136 137 138 139 140 141 142 143 144 145 146 147 148 149 150 151 152 153 154 155 156 157 158 0
-159 -191 0
-160 -191 0
-161 -191 0
-162 -191 0
-163 -191 0
-164 -191 0
-165 -191 0
-166 -191 0
-167 -191 0
-168 -191 0
-169 -191 0
-170 -191 0
-171 -191 0
-172 -191 0
-173 -191 0
-174 -191 0
-175 -191 0
-176 -191 0
-177 -191 0
-178 -191 0
-179 -191 0
-180 -191 0
-181 -191 0
-182 -191 0
-183 -191 0
-184 -191 0
-185 -191 0
-186 -191 0
-187 -191 0
-188 -191 0
-189 -191 0
-190 -191 0
159 160 161 162 163 164 165 166 167 168 169 170 171 172 173 174 175 176 177 178 179 180 181 182 183 184 185 186 187 188 189 190 191 0
-192 -224 0
-193 -224 0
-194 -224 0
-195 -224 0
-196 -224 0
-197 -224 0
-198 -224 0
-199 -224 0
-200 -224 0
-201 -224 0
-202 -224 0
-203 -224 0
-204 -224 0
-205 -224 0
-206 -224 0
-207 -224 0
-208 -224 0
-209 -224 0
-210 -224 0
-211 -224 0
-212 -224 0
-213 -224 0
-214 -224 0
-215 -224 0
-216 -224 0
-217 -224 0
-218 -224 0
-219 -224 0
-220 -224 0
-221 -224 0
-222 -224 0
-223 -224 0
192 193 194 195 196 197 198 199 200 201 202 203 204 205 206 207 208 209 210 211 212 213 214 215 216 217 218 219 220 221 222 223 224 0
125 -225 0
-125 225 0
-1 -225 -226 0
1 225 -226 0
-1 225 226 0
1 -225 226 0
-226 0
158 -227 0
-158 227 0
-2 -227 -228 0
2 227 -228 0
-2 227 228 0
2 -227 228 0
-228 0
191 -229 0
-191 229 0
-4 -229 -230 0
4 229 -230 0
-4 229 230 0
4 -229 230 0
-230 0
2 -231 0
4 -231 0
-2 -4 231 0
1 -232 0
231 -232 0
-1 -231 232 0
-6 -225 -233 0
6 225 -233 0
-6 225 233 0
6 -225 233 0
-233 0
-7 -227 -234 0
7 227 -234 0
-7 227 234 0
7 -227 234 0
-234 0
-191 -235 0
191 235 0
-9 -235 -236 0
9 235 -236 0
-9 235 236 0
9 -235 236 0
-1236 0
-911 1317 0
-232 237 0
9 232 -237 0
7 -232 238 0
7 232 -238 0
-7 -237 238 0
-7 237 -238 0
6 -232 239 0
6 232 -239 0
-6 -238 239 0
-6 238 -239 0
-11 -225 -240 0
11 225 -240 0
-11 225 240 0
11 -225 240 0
-240 0
-158 -241 0
158 241 0
-12 -241 -242 0
12 241 -242 0
-12 241 242 0
12 -241 242 0
-242 0
-14 -229 -243 0
14 229 -243 0
-14 229 243 0
14 -229 243 0
-243 0
-14 244 0
-239 244 0
14 239 -244 0
12 -239 245 0
12 239 -245 0
-12 -244 245 0
-12 244 -245 0
11 -239 246 0
11 239 -246 0
-11 -245 246 0
-11 245 -246 0
-16 -225 -247 0
16 225 -247 0
-16 225 247 0
16 -225 247 0
-247 0
-17 -241 -248 0
17 241 -248 0
-17 241 248 0
17 -241 248 0
-248 0
-19 -235 -249 0
19 235 -249 0
-19 235 249 0
19 -235 249 0
-249 0
-19 250 0
-246 250 0
19 246 -250 0
17 -246 251 0
17 246 -251 0
-17 -250 251 0
-17 250 -251 0
16 -246 252 0
16 246 -252 0
-16 -251 252 0
-16 251 -252 0
-125 -253 0
125 253 0
-21 -253 -254 0
21 253 -254 0
-21 253 254 0
21 -253 254 0
-254 0
-22 -227 -255 0
22 227 -255 0
-22 227 255 0
22 -227 255 0
-255 0
-24 -229 -256 0
24 229 -256 0
-24 229 256 0
24 -229 256 0
-256 0
-24 257 0
-252 257 0
24 252 -257 0
22 -252 258 0
22 252 -258 0
-22 -257 258 0
-22 257 -258 0
21 -252 259 0
21 252 -259 0
-21 -258 259 0
-21 258 -259 0
-26 -253 -260 0
26 253 -260 0
-26 253 260 0
26 -253 260 0
-260 0
-27 -227 -261 0
27 227 -261 0
-27 227 261 0
27 -227 261 0
-261 0
-29 -253 -262 0
29 253 -262 0
-29 253 262 0
29 -253 262 0
-262 0
-30 -241 -263 0
30 241 -263 0
-30 241 263 0
30 -241 263 0
-263 0
-32 -253 -264 0
32 253 -264 0
-32 253 264 0
32 -253 264 0
-264 0
-33 -241 -265 0
33 241 -265 0
-33 241 265 0
33 -241 265 0
-265 0
-39 -498 0
-38 39 -498 0
38 39 498 0
-40 -499 0
40 498 -499 0
40 -498 499 0
-41 -500 0
41 499 -500 0
41 -499 500 0
-42 -501 0
42 500 -501 0
42 -500 501 0
-43 -502 0
43 501 -502 0
43 -501 502 0
-44 -503 0
44 502 -503 0
44 -502 503 0
-45 -504 0
45 503 -504 0
45 -503 504 0
-46 -505 0
46 504 -505 0
46 -504 505 0
-47 -506 0
47 505 -506 0
47 -505 506 0
-48 -507 0
48 506 -507 0
48 -506 507 0
-49 -508 0
49 507 -508 0
49 -507 508 0
-50 -509 0
50 508 -509 0
50 -508 509 0
-51 -510 0
51 509 -510 0
51 -509 510 0
-52 -511 0
52 510 -511 0
52 -510 511 0
-53 -512 0
53 511 -512 0
53 -511 512 0
-54 -513 0
54 512 -513 0
54 -512 513 0
-55 -514 0
55 513 -514 0
55 -513 514 0
-56 -515 0
56 514 -515 0
56 -514 515 0
-57 -516 0
57 515 -516 0
57 -515 516 0
-58 -517 0
58 516 -517 0
58 -516 517 0
-59 -518 0
59 517 -518 0
59 -517 518 0
-60 -519 0
60 518 -519 0
60 -518 519 0
-61 -520 0
61 519 -520 0
61 -519 520 0
-62 -521 0
62 520 -521 0
62 -520 521 0
-63 -522 0
63 521 -522 0
63 -521 522 0
-64 -523 0
64 522 -523 0
64 -522 523 0
-65 -524 0
65 523 -524 0
65 -523 524 0
-66 -525 0
66 524 -525 0
66 -524 525 0
-67 -526 0
67 525 -526 0
67 -525 526 0
-68 -527 0
68 526 -527 0
68 -526 527 0
68 -527 -528 0
-68 527 -528 0
68 527 528 0
-68 -527 528 0
37 -529 0
-38 -529 0
-39 -529 0
-40 -529 0
-41 -529 0
-42 -529 0
-43 -529 0
-44 -529 0
-45 -529 0
-46 -529 0
-47 -529 0
-48 -529 0
-49 -529 0
-50 -529 0
-51 -529 0
-52 -529 0
-53 -529 0
-54 -529 0
-55 -529 0
-56 -529 0
-57 -529 0
-58 -529 0
-59 -529 0
-60 -529 0
-61 -529 0
-62 -529 0
-63 -529 0
-64 -529 0
-65 -529 0
-66 -529 0
-67 -529 0
-68 -529 0
-37 38 39 40 41 42 43 44 45 46 47 48 49 50 51 52 53 54 55 56 57 58 59 60 61 62 63 64 65 66 67 68 529 0
-528 530 0
-529 530 0
528 529 -530 0
-39 -531 0
-38 39 -531 0
38 39 531 0
-40 -532 0
40 531 -532 0
40 -531 532 0
-41 -533 0
41 532 -533 0
41 -532 533 0
-42 -534 0
42 533 -534 0
42 -533 534 0
-43 -535 0
43 534 -535 0
43 -534 535 0
-44 -536 0
44 535 -536 0
44 -535 536 0
-45 -537 0
45 536 -537 0
45 -536 537 0
-46 -538 0
46 537 -538 0
46 -537 538 0
-47 -539 0
47 538 -539 0
47 -538 539 0
-48 -540 0
48 539 -540 0
48 -539 540 0
-49 -541 0
49 540 -541 0
49 -540 541 0
-50 -542 0
50 541 -542 0
50 -541 542 0
-51 -543 0
51 542 -543 0
51 -542 543 0
-52 -544 0
52 543 -544 0
52 -543 544 0
-53 -545 0
53 544 -545 0
53 -544 545 0
-54 -546 0
54 545 -546 0
54 -545 546 0
-55 -547 0
55 546 -547 0
55 -546 547 0
-56 -548 0
56 547 -548 0
56 -547 548 0
-57 -549 0
57 548 -549 0
57 -548 549 0
-58 -550 0
58 549 -550 0
58 -549 550 0
-59 -551 0
59 550 -551 0
59 -550 551 0
-60 -552 0
60 551 -552 0
60 -551 552 0
-61 -553 0
61 552 -553 0
61 -552 553 0
-62 -554 0
62 553 -554 0
62 -553 554 0
-63 -555 0
63 554 -555 0
63 -554 555 0
-64 -556 0
64 555 -556 0
64 -555 556 0
-65 556 -557 0
-65 -556 557 0
65 557 0
-66 -558 0
66 557 -558 0
66 -557 558 0
-67 -559 0
67 558 -559 0
67 -558 559 0
-68 -560 0
68 559 -560 0
68 -559 560 0
68 -560 -561 0
-68 560 -561 0
68 560 561 0
-68 -560 561 0
37 -562 0
-38 -562 0
-39 -562 0
-40 -562 0
-41 -562 0
-42 -562 0
-43 -562 0
-44 -562 0
-45 -562 0
-46 -562 0
-47 -562 0
-48 -562 0
-49 -562 0
-50 -562 0
-51 -562 0
-52 -562 0
-53 -562 0
-54 -562 0
-55 -562 0
-56 -562 0
-57 -562 0
-58 -562 0
-59 -562 0
-60 -562 0
-61 -562 0
-62 -562 0
-63 -562 0
-64 -562 0
65 -562 0
-66 -562 0
-67 -562 0
-68 -562 0
-37 38 39 40 41 42 43 44 45 46 47 48 49 50 51 52 53 54 55 56 57 58 59 60 61 62 63 64 -65 66 67 68 562 0
-561 563 0
-562 563 0
561 562 -563 0
530 0
-563 0
-259 -564 0
259 564 0
564 0
37 -565 0
-37 565 0
38 -566 0
-38 566 0
39 -567 0
-39 567 0
40 -568 0
-40 568 0
41 -569 0
-41 569 0
42 -570 0
-42 570 0
43 -571 0
-43 571 0
44 -572 0
-44 572 0
45 -573 0
-45 573 0
46 -574 0
-46 574 0
47 -575 0
-47 575 0
48 -576 0
-48 576 0
49 -577 0
-49 577 0
50 -578 0
-50 578 0
51 -579 0
-51 579 0
52 -580 0
-52 580 0
53 -581 0
-53 581 0
54 -582 0
-54 582 0
55 -583 0
-55 583 0
56 -584 0
-56 584 0
57 -585 0
-57 585 0
58 -586 0
-58 586 0
59 -587 0
-59 587 0
60 -588 0
-60 588 0
61 -589 0
-61 589 0
62 -590 0
-62 590 0
63 -591 0
-63 591 0
64 -592 0
-64 592 0
65 -593 0
-65 593 0
66 -594 0
-66 594 0
67 -595 0
-67 595 0
68 -596 0
-68 596 0
-597 -661 0
-598 -661 0
-599 -661 0
-600 -661 0
-601 -661 0
-602 -661 0
-603 -661 0
-604 -661 0
-605 -661 0
-606 -661 0
-607 -661 0
-608 -661 0
-609 -661 0
-610 -661 0
-611 -661 0
-612 -661 0
-613 -661 0
-614 -661 0
-615 -661 0
-616 -661 0
-617 -661 0
-618 -661 0
-619 -661 0
-620 -661 0
-621 -661 0
-622 -661 0
-623 -661 0
-624 -661 0
-625 -661 0
-626 -661 0
-627 -661 0
-628 -661 0
-629 -661 0
-630 -661 0
-631 -661 0
-632 -661 0
-633 -661 0
-634 -661 0
-635 -661 0
-636 -661 0
-637 -661 0
-638 -661 0
-639 -661 0
-640 -661 0
-641 -661 0
-642 -661 0
-643 -661 0
-644 -661 0
-645 -661 0
-646 -661 0
-647 -661 0
-648 -661 0
-649 -661 0
-650 -661 0
-651 -661 0
-652 -661 0
-653 -661 0
-654 -661 0
-655 -661 0
-656 -661 0
-657 -661 0
-658 -661 0
-659 -661 0
-660 -661 0
597 598 599 600 601 602 603 604 605 606 607 608 609 610 611 612 613 614 615 616 617 618 619 620 621 622 623 624 625 626 627 628 629 630 631 632 633 634 635 636 637 638 639 640 641 642 643 644 645 646 647 648 649 650 651 652 653 654 655 656 657 658 659 660 661 0
661 0
-597 -662 -726 0
597 662 -726 0
597 -662 726 0
-597 662 726 0
-598 -663 -727 0
598 663 -727 0
598 -663 727 0
-598 663 727 0
-599 -664 -728 0
599 664 -728 0
599 -664 728 0
-599 664 728 0
-600 -665 -729 0
600 665 -729 0
600 -665 729 0
-600 665 729 0
-601 -666 -730 0
601 666 -730 0
601 -666 730 0
-601 666 730 0
-602 -667 -731 0
602 667 -731 0
602 -667 731 0
-602 667 731 0
-603 -668 -732 0
603 668 -732 0
603 -668 732 0
-603 668 732 0
-604 -669 -733 0
604 669 -733 0
604 -669 733 0
-604 669 733 0
-605 -670 -734 0
605 670 -734 0
605 -670 734 0
-605 670 734 0
-606 -671 -735 0
606 671 -735 0
606 -671 735 0
-606 671 735 0
-607 -672 -736 0
607 672 -736 0
607 -672 736 0
-607 672 736 0
-608 -673 -737 0
608 673 -737 0
608 -673 737 0
-608 673 737 0
-609 -674 -738 0
609 674 -738 0
609 -674 738 0
-609 674 738 0
-610 -675 -739 0
610 675 -739 0
610 -675 739 0
-610 675 739 0
-611 -676 -740 0
611 676 -740 0
611 -676 740 0
-611 676 740 0
-612 -677 -741 0
612 677 -741 0
612 -677 741 0
-612 677 741 0
-613 -678 -742 0
613 678 -742 0
613 -678 742 0
-613 678 742 0
-614 -679 -743 0
614 679 -743 0
614 -679 743 0
-614 679 743 0
-615 -680 -744 0
615 680 -744 0
615 -680 744 0
-615 680 744 0
-616 -681 -745 0
616 681 -745 0
616 -681 745 0
-616 681 745 0
-617 -682 -746 0
617 682 -746 0
617 -682 746 0
-617 682 746 0
-618 -683 -747 0
618 683 -747 0
618 -683 747 0
-618 683 747 0
-619 -684 -748 0
619 684 -748 0
619 -684 748 0
-619 684 748 0
-620 -685 -749 0
620 685 -749 0
620 -685 749 0
-620 685 749 0
-621 -686 -750 0
621 686 -750 0
621 -686 750 0
-621 686 750 0
-622 -687 -751 0
622 687 -751 0
622 -687 751 0
-622 687 751 0
-623 -688 -752 0
623 688 -752 0
623 -688 752 0
-623 688 752 0
-624 -689 -753 0
624 689 -753 0
624 -689 753 0
-624 689 753 0
-625 -690 -754 0
625 690 -754 0
625 -690 754 0
-625 690 754 0
-626 -691 -755 0
626 691 -755 0
626 -691 755 0
-626 691 755 0
-627 -692 -756 0
627 692 -756 0
627 -692 756 0
-627 692 756 0
-628 -693 -757 0
628 693 -757 0
628 -693 757 0
-628 693 757 0
-629 -694 -758 0
629 694 -758 0
629 -694 758 0
-629 694 758 0
-630 -695 -759 0
630 695 -759 0
630 -695 759 0
-630 695 759 0
-631 -696 -760 0
631 696 -760 0
631 -696 760 0
-631 696 760 0
-632 -697 -761 0
632 697 -761 0
632 -697 761 0
-632 697 761 0
-633 -698 -762 0
633 698 -762 0
633 -698 762 0
-633 698 762 0
-634 -699 -763 0
634 699 -763 0
634 -699 763 0
-634 699 763 0
-635 -700 -764 0
635 700 -764 0
635 -700 764 0
-635 700 764 0
-636 -701 -765 0
636 701 -765 0
636 -701 765 0
-636 701 765 0
-637 -702 -766 0
637 702 -766 0
637 -702 766 0
-637 702 766 0
-638 -703 -767 0
638 703 -767 0
638 -703 767 0
-638 703 767 0
-639 -704 -768 0
639 704 -768 0
639 -704 768 0
-639 704 768 0
-640 -705 -769 0
640 705 -769 0
640 -705 769 0
-640 705 769 0
-641 -706 -770 0
641 706 -770 0
641 -706 770 0
-641 706 770 0
-642 -707 -771 0
642 707 -771 0
642 -707 771 0
-642 707 771 0
-643 -708 -772 0
643 708 -772 0
643 -708 772 0
-643 708 772 0
-644 -709 -773 0
644 709 -773 0
644 -709 773 0
-644 709 773 0
-645 -710 -774 0
645 710 -774 0
645 -710 774 0
-645 710 774 0
-646 -711 -775 0
646 711 -775 0
646 -711 775 0
-646 711 775 0
-647 -712 -776 0
647 712 -776 0
647 -712 776 0
-647 712 776 0
-648 -713 -777 0
648 713 -777 0
648 -713 777 0
-648 713 777 0
-649 -714 -778 0
649 714 -778 0
649 -714 778 0
-649 714 778 0
-650 -715 -779 0
650 715 -779 0
650 -715 779 0
-650 715 779 0
-651 -716 -780 0
651 716 -780 0
651 -716 780 0
-651 716 780 0
-652 -717 -781 0
652 717 -781 0
652 -717 781 0
-652 717 781 0
-653 -718 -782 0
653 718 -782 0
653 -718 782 0
-653 718 782 0
-654 -719 -783 0
654 719 -783 0
654 -719 783 0
-654 719 783 0
-655 -720 -784 0
655 720 -784 0
655 -720 784 0
-655 720 784 0
-656 -721 -785 0
656 721 -785 0
656 -721 785 0
-656 721 785 0
-657 -722 -786 0
657 722 -786 0
657 -722 786 0
-657 722 786 0
-658 -723 -787 0
658 723 -787 0
658 -723 787 0
-658 723 787 0
-659 -724 -788 0
659 724 -788 0
659 -724 788 0
-659 724 788 0
-660 -725 -789 0
660 725 -789 0
660 -725 789 0
-660 725 789 0
-726 -790 0
-727 -790 0
-728 -790 0
-729 -790 0
-730 -790 0
-731 -790 0
-732 -790 0
-733 -790 0
-734 -790 0
-735 -790 0
-736 -790 0
-737 -790 0
-738 -790 0
-739 -790 0
-740 -790 0
-741 -790 0
-742 -790 0
-743 -790 0
-744 -790 0
-745 -790 0
-746 -790 0
-747 -790 0
-748 -790 0
-749 -790 0
-750 -790 0
-751 -790 0
-752 -790 0
-753 -790 0
-754 -790 0
-755 -790 0
-756 -790 0
-757 -790 0
-758 -790 0
-759 -790 0
-760 -790 0
-761 -790 0
-762 -790 0
-763 -790 0
-764 -790 0
-765 -790 0
-766 -790 0
-767 -790 0
-768 -790 0
-769 -790 0
-770 -790 0
-771 -790 0
-772 -790 0
-773 -790 0
-774 -790 0
-775 -790 0
-776 -790 0
-777 -790 0
-778 -790 0
-779 -790 0
-780 -790 0
-781 -790 0
-782 -790 0
-783 -790 0
-784 -790 0
-785 -790 0
-786 -790 0
-787 -790 0
-788 -790 0
-789 -790 0
726 727 728 729 730 731 732 733 734 735 736 737 738 739 740 741 742 743 744 745 746 747 748 749 750 751 752 753 754 755 756 757 758 759 760 761 762 763 764 765 766 767 768 769 770 771 772 773 774 775 776 777 778 779 780 781 782 783 784 785 786 787 788 789 790 0
-36 790 0
-791 -793 -795 0
791 793 -795 0
-791 793 795 0
791 -793 795 0
-792 -794 -796 0
792 794 -796 0
-792 794 796 0
792 -794 796 0
-795 -797 0
-796 -797 0
795 796 797 0
-36 797 0
36 -797 0
-798 -800 -802 0
798 800 -802 0
-798 800 802 0
798 -800 802 0
-799 -801 -803 0
799 801 -803 0
-799 801 803 0
799 -801 803 0
-802 -804 0
-803 -804 0
802 803 804 0
-35 804 0
35 -804 0
